20	5
0	5	1	3	2	10	4
1	1	5
2	6	12	19	18	14	6	13
3	3	5	15	14
4	2	19	8
5	4	13	9	16	17
6	1	15
7	2	9	17
8	3	17	11	20
9	4	12	20	19	18
10	3	8	14	7
11	2	6	12
12	1	21
13	1	21
14	1	21
15	1	21
16	1	21
17	1	21
18	1	21
19	1	21
20	1	21
21	0
0	0	0	0	0	0	0
1	10	5	1	2	0	0
2	8	4	0	0	3	0
3	1	3	0	0	4	1
4	8	3	0	4	1	3
5	1	0	3	0	4	1
6	4	1	0	0	0	0
7	8	0	3	0	0	0
8	9	3	0	4	2	0
9	7	0	0	0	5	0
10	6	4	0	4	0	0
11	3	1	0	0	0	2
12	3	0	1	0	2	3
13	1	4	4	3	0	0
14	3	4	0	2	0	0
15	8	0	0	0	0	2
16	9	4	5	5	3	4
17	2	4	1	3	0	0
18	6	2	2	0	0	4
19	10	0	3	0	2	3
20	10	5	0	2	0	0
21	0	0	0	0	0	0
12	7	8	7	6
